9
0, 942, 934, 542, 614, 1106, 463, 818, 882
942, 0, 414, 424, 588, 286, 518, 651, 338
934, 414, 0, 598, 357, 277, 480, 286, 87
542, 424, 598, 0, 484, 654, 261, 667, 516
614, 588, 357, 484, 0, 602, 241, 213, 341
1106, 286, 277, 654, 602, 0, 645, 564, 261
463, 518, 480, 261, 241, 645, 0, 446, 421
818, 651, 286, 667, 213, 564, 446, 0, 326
882, 338, 87, 516, 341, 261, 421, 326, 0
